% demand
num_movements = 15;
loading_factor = [1000, 1200, 1050, 1200, 1750, 1900, 1600, 1750, 800, 950, 1750, 1100, 850, 1750, 1650];
pickup_time = [0, 1, 1, 1, 1, 2, 3, 4, 4, 4, 5, 7, 8, 8, 11];
delivery_time = [1, 2, 2, 2, 2, 5, 7, 10, 11, 8, 7, 11, 10, 12, 12];

% transporter definition
total_capacity = 7000;
num_decks = 3;
capacity = [3000, 1000, 3000];

% ways out of decks
num_ways_out = 1;
paths_out = array3d(decks, ways_out, decks, [
% ways out of deck d1
2, 3, 0, 

% ways out of deck d2
3, 0, 0, 

% ways out of deck d3
0, 0, 0,	

]);

